\ Model Routes
\ LP format - for model browsing. Use MPS format to capture full model detail.
Maximize
  2139.239566492545 x_0 + 2734.560054546721 x_1 + 2194.45473739277 x_2
   + 2063.898627885423 x_3 + 2063.898627885423 x_4 + 2063.898627885423 x_5
   + 1896.186365248035 x_6 + 1896.186365248035 x_7 + 1896.186365248035 x_8
   + 602.7715987099857 x_9 + 323.4745153667197 x_10
   + 323.4745153667197 x_11 + 1246.754905151055 x_12
   + 1246.754905151055 x_13 + 1246.754905151055 x_14
   + 1788.482008445429 x_15 + 1788.482008445429 x_16
   + 1788.482008445429 x_17 + 630.2636878401449 x_18
   + 630.2636878401449 x_19 + 630.2636878401449 x_20
Subject To
 R1_0: x_0 + x_1 + x_2 <= 1
 R1_1: x_3 + x_4 + x_5 <= 1
 R1_2: x_6 + x_7 + x_8 <= 1
 R1_3: x_9 + x_10 + x_11 <= 1
 R1_4: x_12 + x_13 + x_14 <= 1
 R1_5: x_15 + x_16 + x_17 <= 1
 R1_6: x_18 + x_19 + x_20 <= 1
 R2_0: 7 x_0 + 7 x_1 + 7 x_2 <= 7
 R2_1: 10 x_3 + 10 x_4 + 10 x_5 <= 10
 R2_2: 15 x_6 + 15 x_7 + 15 x_8 <= 16
 R2_3: 4 x_3 + 4 x_4 + 4 x_5 <= 4
 R2_4: <= 0
 R2_5: 5 x_15 + 5 x_16 + 5 x_17 <= 5
 R2_6: 10 x_9 + 10 x_10 + 10 x_11 <= 10
 R2_7: 6 x_6 + 6 x_7 + 6 x_8 <= 6
 R2_8: 9 x_18 + 9 x_19 + 9 x_20 <= 9
 R2_9: 12 x_9 + 12 x_10 + 12 x_11 <= 12
 R2_10: 8 x_18 + 8 x_19 + 8 x_20 <= 8
 R2_11: 15 x_12 + 15 x_13 + 15 x_14 <= 15
 R2_12: <= 0
 R2_13: 8 x_3 + 8 x_4 + 8 x_5 <= 8
 R2_14: <= 0
 R2_15: 11 x_0 + 11 x_1 + 11 x_2 <= 11
 R2_16: 5 x_15 + 5 x_16 + 5 x_17 <= 5
 R2_17: 11 x_12 + 11 x_13 + 11 x_14 <= 11
 R2_18: 5 x_3 + 5 x_4 + 5 x_5 <= 5
 R2_19: 11 x_1 + 11 x_3 + 11 x_4 + 11 x_5 <= 11
 R2_20: 13 x_6 + 13 x_7 + 13 x_8 <= 13
 R2_21: <= 0
 R2_22: 10 x_6 + 10 x_7 + 10 x_8 <= 10
 R2_23: 14 x_6 + 14 x_7 + 14 x_8 <= 14
 R2_24: 10 x_15 + 10 x_16 + 10 x_17 <= 10
 R2_25: 13 x_0 + 13 x_1 + 13 x_2 <= 13
 R2_26: 6 x_12 + 6 x_13 + 6 x_14 <= 6
 R2_27: 5 x_1 + 5 x_15 + 5 x_16 + 5 x_17 <= 5
 R2_28: <= 0
 R2_29: <= 0
 R2_30: <= 0
 R2_31: 6 x_12 + 6 x_13 + 6 x_14 <= 6
 R2_32: 7 x_15 + 7 x_16 + 7 x_17 <= 7
 R2_33: 12 x_15 + 12 x_16 + 12 x_17 <= 12
 R2_34: 5 x_0 + 5 x_1 + 5 x_2 <= 5
 R2_35: 13 x_18 + 13 x_19 + 13 x_20 <= 13
 R2_36: 15 x_12 + 15 x_13 + 15 x_14 <= 16
 R2_37: 5 x_18 + 5 x_19 + 5 x_20 <= 5
 R2_38: <= 0
 R2_39: 15 x_0 + 15 x_1 + 15 x_2 <= 17
 R2_40: 15 x_6 + 15 x_7 + 15 x_8 <= 15
 R2_41: 5 x_0 + 5 x_1 + 5 x_2 <= 5
 R2_42: 4 x_6 + 4 x_7 + 4 x_8 <= 4
 R2_43: <= 0
 R2_44: <= 0
 R2_45: <= 0
 R2_46: 9 x_3 + 9 x_4 + 9 x_5 <= 9
 R2_47: 7 x_2 <= 7
 R2_48: 4 x_15 + 4 x_16 + 4 x_17 <= 4
 R2_49: <= 0
 R2_50: <= 0
 R2_51: 11 x_3 + 11 x_4 + 11 x_5 <= 11
 R2_52: 10 x_12 + 10 x_13 + 10 x_14 <= 10
 R2_53: 13 x_15 + 13 x_16 + 13 x_17 <= 13
 R2_54: 9 x_9 + 9 x_10 + 9 x_11 <= 9
 R2_55: 8 x_12 + 8 x_13 + 8 x_14 <= 8
 R2_56: 6 x_6 + 6 x_7 + 6 x_8 <= 6
 R2_57: <= 0
 R2_58: 15 x_15 + 15 x_16 + 15 x_17 <= 15
 R2_59: 10 x_3 + 10 x_4 + 10 x_5 + 10 x_9 <= 10
 R2_60: 13 x_9 + 13 x_10 + 13 x_11 <= 13
 R2_61: 9 x_12 + 9 x_13 + 9 x_14 <= 9
 R2_62: 10 x_18 + 10 x_19 + 10 x_20 <= 10
 R2_63: <= 0
 R2_64: <= 0
 R2_65: 5 x_6 + 5 x_7 + 5 x_8 <= 5
 R2_66: 7 x_18 + 7 x_19 + 7 x_20 <= 7
 R2_67: 3 x_3 + 3 x_4 + 3 x_5 <= 3
 R2_68: 6 x_18 + 6 x_19 + 6 x_20 <= 6
 R2_69: 7 x_0 + 7 x_2 <= 7
 R2_70: 11 x_3 + 11 x_4 + 11 x_5 <= 11
 R2_71: 7 x_18 + 7 x_19 + 7 x_20 <= 7
 R2_72: <= 0
 R2_73: 11 x_0 + 11 x_1 + 11 x_2 <= 11
 R2_74: 5 x_15 + 5 x_16 + 5 x_17 <= 5
 R2_75: <= 0
 R2_76: <= 0
 R2_77: 7 x_0 + 7 x_1 + 7 x_2 <= 7
Bounds
Binaries
 x_0 x_1 x_2 x_3 x_4 x_5 x_6 x_7 x_8 x_9 x_10 x_11 x_12 x_13 x_14 x_15 x_16
 x_17 x_18 x_19 x_20
End
